0 41 42
1 37 41
2 21 40
3 39 41
4 41 41
5 39 42
6 39 43
7 35 41
8 34 41
9 35 40
10 30 37
11 37 38
12 35 37
13 31 36
14 35 35
15 29 34
16 31 31
17 31 31
18 30 32
19 21 33
20 25 31
21 27 29
22 19 27
23 20 29
24 17 27
25 26 26
26 24 25
27 19 22
28 22 22
29 23 23
30 22 22
31 14 20
32 20 20
33 9 20
34 15 20
35 13 21
36 18 20
37 20 20
38 14 19
39 15 18
40 13 19
41 19 19
42 5 18
43 9 15
44 8 15
45 14 14
46 7 13
47 11 11
48 6 10
49 9 9
50 7 8
51 3 5
52 2 2
53 1 1

